c User generated cnf file
p cnf 12 23
8 11 -11 0 
6 1 -12 0 
3 1 -10 0 
8 -10 2 0 
5 -6 10 0 
8 -9 3 0 
12 -6 6 0 
8 -5 1 0 
9 12 -4 0 
4 8 -9 0 
2 2 -1 0 
7 -9 11 0 
8 9 -11 0 
3 -4 4 0 
7 10 -6 0 
6 10 -10 0 
9 -1 1 0 
12 7 -12 0 
2 10 -11 0 
5 12 -2 0 
5 -8 2 0 
11 -2 4 0 
3 -11 5 0 
